Nb of jobs, Nb of Machines, Time seed, Machine seed, Upper bound, Lower bound
5,5,-1,-1,-1,-1
Times
29,61,31,48,15
64,89,35,39,87
77,57,55,93,9
79,38,18,42,21
1,90,9,10,12
Machines
2,5,3,1,4
1,3,2,5,4
5,1,3,2,4
4,5,1,3,2
4,5,2,3,1
